
Gurobi 6.5.2 (win64) logging started 07/24/16 17:35:35


Gurobi 6.5.2 (win64) logging started 07/24/16 17:35:35

Optimize a model with 2990 rows, 781 columns and 7700 nonzeros
Coefficient statistics:
  Matrix range    [6e-08, 1e+03]
  Objective range [1e+00, 1e+00]
  Bounds range    [1e+00, 1e+00]
  RHS range       [6e-06, 1e+03]
Presolve removed 2754 rows and 539 columns
Presolve time: 0.00s
Presolved: 236 rows, 242 columns, 1023 nonzeros
Variable types: 242 continuous, 0 integer (0 binary)

Root relaxation: objective 2.675483e+01, 233 iterations, 0.00 seconds

    Nodes    |    Current Node    |     Objective Bounds      |     Work
 Expl Unexpl |  Obj  Depth IntInf | Incumbent    BestBd   Gap | It/Node Time

*    0     0               0      26.7548311   26.75483  0.00%     -    0s

Explored 0 nodes (233 simplex iterations) in 0.02 seconds
Thread count was 8 (of 8 available processors)

Optimal solution found (tolerance 1.00e-04)
Best objective 2.675483111818e+01, best bound 2.675483111818e+01, gap 0.0%

Wrote requested result file 'H1\instance19\\Results19EC_Sol3.lp'

